model.ilp
\ Model (null)_copy
\ LP format - for model browsing. Use MPS format to capture full model detail.
Maximize
 
Subject To
 flowcons1: = 1
Bounds
End
